NAME /Users/henri/Research/solvers/instances/idol-instances/robust/collection/cbp_Subramanyam_et_al_2020/CapBud_N30_7/models/uncertain_technology_matrix/
ROWS
 N  OBJ
 L  capacity
 L  c_5730
 L  c_5731
 L  c_5732
 L  c_5733
 L  c_5734
 L  c_5735
 L  c_5736
 L  c_5737
 L  c_5738
 L  c_5739
 L  c_5740
 L  c_5741
 L  c_5742
 L  c_5743
 L  c_5744
 L  c_5745
 L  c_5746
 L  c_5747
 L  c_5748
 L  c_5749
 L  c_5750
 L  c_5751
 L  c_5752
 L  c_5753
 L  c_5754
 L  c_5755
 L  c_5756
 L  c_5757
 L  c_5758
 L  c_5759
COLUMNS
    MARKER    'MARKER'                 'INTORG'
    x_0        OBJ        5.24851
    x_0        c_5730     1
    x_0        capacity   1.0497
    x_1        OBJ        6.83985
    x_1        c_5731     1
    x_1        capacity   1.36797
    x_2        OBJ        2.69569
    x_2        c_5732     1
    x_2        capacity   0.539137
    x_3        OBJ        1.83734
    x_3        c_5733     1
    x_3        capacity   0.367467
    x_4        OBJ        3.07764
    x_4        c_5734     1
    x_4        capacity   0.615528
    x_5        OBJ        6.25553
    x_5        c_5735     1
    x_5        capacity   1.25111
    x_6        OBJ        2.65372
    x_6        c_5736     1
    x_6        capacity   0.530743
    x_7        OBJ        7.59315
    x_7        c_5737     1
    x_7        capacity   1.51863
    x_8        OBJ        0.97416
    x_8        c_5738     1
    x_8        capacity   0.194832
    x_9        OBJ        9.83752
    x_9        c_5739     1
    x_9        capacity   1.9675
    x_10       OBJ        1.29371
    x_10       c_5740     1
    x_10       capacity   0.258742
    x_11       OBJ        3.52612
    x_11       c_5741     1
    x_11       capacity   0.705224
    x_12       OBJ        0.427209
    x_12       c_5742     1
    x_12       capacity   0.0854418
    x_13       OBJ        9.68439
    x_13       c_5743     1
    x_13       capacity   1.93688
    x_14       OBJ        7.78082
    x_14       c_5744     1
    x_14       capacity   1.55616
    x_15       OBJ        7.71854
    x_15       c_5745     1
    x_15       capacity   1.54371
    x_16       OBJ        1.62891
    x_16       c_5746     1
    x_16       capacity   0.325782
    x_17       OBJ        4.56057
    x_17       c_5747     1
    x_17       capacity   0.912115
    x_18       OBJ        3.48982
    x_18       c_5748     1
    x_18       capacity   0.697964
    x_19       OBJ        5.50853
    x_19       c_5749     1
    x_19       capacity   1.10171
    x_20       OBJ        3.03035
    x_20       c_5750     1
    x_20       capacity   0.60607
    x_21       OBJ        2.03484
    x_21       c_5751     1
    x_21       capacity   0.406968
    x_22       OBJ        8.03911
    x_22       c_5752     1
    x_22       capacity   1.60782
    x_23       OBJ        4.44074
    x_23       c_5753     1
    x_23       capacity   0.888148
    x_24       OBJ        4.8571
    x_24       c_5754     1
    x_24       capacity   0.971419
    x_25       OBJ        9.44047
    x_25       c_5755     1
    x_25       capacity   1.88809
    x_26       OBJ        2.30607
    x_26       c_5756     1
    x_26       capacity   0.461213
    x_27       OBJ        8.59057
    x_27       c_5757     1
    x_27       capacity   1.71811
    x_28       OBJ        3.30912
    x_28       c_5758     1
    x_28       capacity   0.661823
    x_29       OBJ        9.71131
    x_29       c_5759     1
    x_29       capacity   1.94226
    y_0        OBJ        4.19881
    y_0        c_5730     1
    y_0        capacity   1.0497
    y_1        OBJ        5.47188
    y_1        c_5731     1
    y_1        capacity   1.36797
    y_2        OBJ        2.15655
    y_2        c_5732     1
    y_2        capacity   0.539137
    y_3        OBJ        1.46987
    y_3        c_5733     1
    y_3        capacity   0.367467
    y_4        OBJ        2.46211
    y_4        c_5734     1
    y_4        capacity   0.615528
    y_5        OBJ        5.00442
    y_5        c_5735     1
    y_5        capacity   1.25111
    y_6        OBJ        2.12297
    y_6        c_5736     1
    y_6        capacity   0.530743
    y_7        OBJ        6.07452
    y_7        c_5737     1
    y_7        capacity   1.51863
    y_8        OBJ        0.779328
    y_8        c_5738     1
    y_8        capacity   0.194832
    y_9        OBJ        7.87001
    y_9        c_5739     1
    y_9        capacity   1.9675
    y_10       OBJ        1.03497
    y_10       c_5740     1
    y_10       capacity   0.258742
    y_11       OBJ        2.8209
    y_11       c_5741     1
    y_11       capacity   0.705224
    y_12       OBJ        0.341767
    y_12       c_5742     1
    y_12       capacity   0.0854418
    y_13       OBJ        7.74751
    y_13       c_5743     1
    y_13       capacity   1.93688
    y_14       OBJ        6.22466
    y_14       c_5744     1
    y_14       capacity   1.55616
    y_15       OBJ        6.17483
    y_15       c_5745     1
    y_15       capacity   1.54371
    y_16       OBJ        1.30313
    y_16       c_5746     1
    y_16       capacity   0.325782
    y_17       OBJ        3.64846
    y_17       c_5747     1
    y_17       capacity   0.912115
    y_18       OBJ        2.79186
    y_18       c_5748     1
    y_18       capacity   0.697964
    y_19       OBJ        4.40682
    y_19       c_5749     1
    y_19       capacity   1.10171
    y_20       OBJ        2.42428
    y_20       c_5750     1
    y_20       capacity   0.60607
    y_21       OBJ        1.62787
    y_21       c_5751     1
    y_21       capacity   0.406968
    y_22       OBJ        6.43129
    y_22       c_5752     1
    y_22       capacity   1.60782
    y_23       OBJ        3.55259
    y_23       c_5753     1
    y_23       capacity   0.888148
    y_24       OBJ        3.88568
    y_24       c_5754     1
    y_24       capacity   0.971419
    y_25       OBJ        7.55238
    y_25       c_5755     1
    y_25       capacity   1.88809
    y_26       OBJ        1.84485
    y_26       c_5756     1
    y_26       capacity   0.461213
    y_27       OBJ        6.87246
    y_27       c_5757     1
    y_27       capacity   1.71811
    y_28       OBJ        2.64729
    y_28       c_5758     1
    y_28       capacity   0.661823
    y_29       OBJ        7.76905
    y_29       c_5759     1
    y_29       capacity   1.94226
    MARKER    'MARKER'                 'INTEND'
RHS
    RHS       capacity   74.1957
    RHS       c_5730     1
    RHS       c_5731     1
    RHS       c_5732     1
    RHS       c_5733     1
    RHS       c_5734     1
    RHS       c_5735     1
    RHS       c_5736     1
    RHS       c_5737     1
    RHS       c_5738     1
    RHS       c_5739     1
    RHS       c_5740     1
    RHS       c_5741     1
    RHS       c_5742     1
    RHS       c_5743     1
    RHS       c_5744     1
    RHS       c_5745     1
    RHS       c_5746     1
    RHS       c_5747     1
    RHS       c_5748     1
    RHS       c_5749     1
    RHS       c_5750     1
    RHS       c_5751     1
    RHS       c_5752     1
    RHS       c_5753     1
    RHS       c_5754     1
    RHS       c_5755     1
    RHS       c_5756     1
    RHS       c_5757     1
    RHS       c_5758     1
    RHS       c_5759     1
BOUNDS
 LI BND       x_0        0
 UI BND       x_0        1
 LI BND       x_1        0
 UI BND       x_1        1
 LI BND       x_2        0
 UI BND       x_2        1
 LI BND       x_3        0
 UI BND       x_3        1
 LI BND       x_4        0
 UI BND       x_4        1
 LI BND       x_5        0
 UI BND       x_5        1
 LI BND       x_6        0
 UI BND       x_6        1
 LI BND       x_7        0
 UI BND       x_7        1
 LI BND       x_8        0
 UI BND       x_8        1
 LI BND       x_9        0
 UI BND       x_9        1
 LI BND       x_10       0
 UI BND       x_10       1
 LI BND       x_11       0
 UI BND       x_11       1
 LI BND       x_12       0
 UI BND       x_12       1
 LI BND       x_13       0
 UI BND       x_13       1
 LI BND       x_14       0
 UI BND       x_14       1
 LI BND       x_15       0
 UI BND       x_15       1
 LI BND       x_16       0
 UI BND       x_16       1
 LI BND       x_17       0
 UI BND       x_17       1
 LI BND       x_18       0
 UI BND       x_18       1
 LI BND       x_19       0
 UI BND       x_19       1
 LI BND       x_20       0
 UI BND       x_20       1
 LI BND       x_21       0
 UI BND       x_21       1
 LI BND       x_22       0
 UI BND       x_22       1
 LI BND       x_23       0
 UI BND       x_23       1
 LI BND       x_24       0
 UI BND       x_24       1
 LI BND       x_25       0
 UI BND       x_25       1
 LI BND       x_26       0
 UI BND       x_26       1
 LI BND       x_27       0
 UI BND       x_27       1
 LI BND       x_28       0
 UI BND       x_28       1
 LI BND       x_29       0
 UI BND       x_29       1
 LI BND       y_0        0
 UI BND       y_0        1
 LI BND       y_1        0
 UI BND       y_1        1
 LI BND       y_2        0
 UI BND       y_2        1
 LI BND       y_3        0
 UI BND       y_3        1
 LI BND       y_4        0
 UI BND       y_4        1
 LI BND       y_5        0
 UI BND       y_5        1
 LI BND       y_6        0
 UI BND       y_6        1
 LI BND       y_7        0
 UI BND       y_7        1
 LI BND       y_8        0
 UI BND       y_8        1
 LI BND       y_9        0
 UI BND       y_9        1
 LI BND       y_10       0
 UI BND       y_10       1
 LI BND       y_11       0
 UI BND       y_11       1
 LI BND       y_12       0
 UI BND       y_12       1
 LI BND       y_13       0
 UI BND       y_13       1
 LI BND       y_14       0
 UI BND       y_14       1
 LI BND       y_15       0
 UI BND       y_15       1
 LI BND       y_16       0
 UI BND       y_16       1
 LI BND       y_17       0
 UI BND       y_17       1
 LI BND       y_18       0
 UI BND       y_18       1
 LI BND       y_19       0
 UI BND       y_19       1
 LI BND       y_20       0
 UI BND       y_20       1
 LI BND       y_21       0
 UI BND       y_21       1
 LI BND       y_22       0
 UI BND       y_22       1
 LI BND       y_23       0
 UI BND       y_23       1
 LI BND       y_24       0
 UI BND       y_24       1
 LI BND       y_25       0
 UI BND       y_25       1
 LI BND       y_26       0
 UI BND       y_26       1
 LI BND       y_27       0
 UI BND       y_27       1
 LI BND       y_28       0
 UI BND       y_28       1
 LI BND       y_29       0
 UI BND       y_29       1
ENDATA
